212288.0
2403
0 1 5 8 9 13 15 17 18 19 20 23 26 28 30 31 33 34 35 36 37 40 41 43 45 46 47 48 49 50 53 55 56 57 58 62 64 67 72 73 74 77 78 82 83 84 88 93 95 96 97 99 102 103 107 108 109 111 114 116 117 118 122 124 125 128 129 130 131 135 136 137 139 147 148 150 152 156 157 159 160 161 164 166 167 170 173 174 177 179 180 182 185 187 188 189 190 191 193 194 196 197 198 199 